
Log started (V11.0.0) Mon Apr 14 03:17:28 2008

Tried aggregator 1 time.
Reduced MIP has 530 rows, 15001 columns, and 30030 nonzeros.
Presolve time =    0.09 sec.
Clique table members: 500.
MIP emphasis: balance optimality and feasibility.
MIP search method: dynamic search.
Parallel mode: none, using 1 thread.
Root relaxation solution time =    0.47 sec.

        Nodes                                         Cuts/
   Node  Left     Objective  IInf  Best Integer     Best Node    ItCnt     Gap

*     0+    0                        25819.0000       65.1611     1064   99.75%
*     0+    0                           76.0000       65.1611     1064   14.26%
      0     0       66.0000    49       76.0000      Fract: 7     1072   13.16%
*     0+    0                           75.0000       66.0000     1072   12.00%
*     0+    0                           74.0000       66.0000     1072   10.81%
*     0+    0                           71.0000       66.0000     1072    7.04%

Repeating presolve.
Tried aggregator 1 time.
MIP Presolve eliminated 0 rows and 4606 columns.
Reduced MIP has 530 rows, 10395 columns, and 20818 nonzeros.
Tried aggregator 1 time.
Represolve time =    0.42 sec.
Clique table members: 864.
MIP emphasis: balance optimality and feasibility.
MIP search method: dynamic search.
Parallel mode: none, using 1 thread.
Root relaxation solution time =    0.27 sec.

        Nodes                                         Cuts/
   Node  Left     Objective  IInf  Best Integer     Best Node    ItCnt     Gap

      0     0       66.0000    58       71.0000       66.0000      912    7.04%
      0     2       66.0000    58       71.0000       66.0000      912    7.04%
    100    93       67.0000    39       71.0000       66.0000     5613    7.04%
*   140+  124                           70.0000       66.0000     7303    5.71%
    200   166       68.0000    42       70.0000       66.0000    10433    5.71%
*   250+  187                           69.0000       66.0000    12058    4.35%
    300   237       67.0000    43       69.0000       66.0000    13859    4.35%
    400   316       67.0000    49       69.0000       66.0000    20959    4.35%
    500   394       68.0000    49       69.0000       66.0000    27853    4.35%
*   504+  261                           68.0000       66.0000    30081    2.94%
    600   265    infeasible             68.0000       66.0000    40333    2.94%
    700   266       66.0000    52       68.0000       66.0000    48200    2.94%
    800   271    infeasible             68.0000       66.0000    56107    2.94%
    900   310       66.0000    69       68.0000       66.0000    63679    2.94%
   1000   396       67.0000    38       68.0000       66.0000    70793    2.94%
Elapsed time =  69.69 sec. (tree size =  4.16 MB, solutions = 8)
   1100   488       67.0000    34       68.0000       66.0000    79189    2.94%
   1200   580       67.0000    40       68.0000       66.0000    84014    2.94%
   1300   661       67.0000    56       68.0000       66.0000    94437    2.94%
*  1304+  188                           67.0000       66.0000    94622    1.49%
   1400   265       66.0000    64       67.0000       66.0000   103348    1.49%
   1500   345       66.0000   110       67.0000       66.0000   114413    1.49%
   1600   431       66.0000    65       67.0000       66.0000   123943    1.49%
   1700   515       66.0000    56       67.0000       66.0000   133976    1.49%
   1800   585       66.0000    80       67.0000       66.0000   153089    1.49%
   1900   671       66.0000    89       67.0000       66.0000   162607    1.49%
   2000   743    infeasible             67.0000       66.0000   177795    1.49%
Elapsed time = 147.75 sec. (tree size = 10.30 MB, solutions = 9)
   2100   813       66.0000    53       67.0000       66.0000   195952    1.49%
   2200   861    infeasible             67.0000       66.0000   221063    1.49%
   2300   929       66.0000    61       67.0000       66.0000   241336    1.49%
   2400   989       66.0000    96       67.0000       66.0000   263597    1.49%
   2500  1057       66.0000    94       67.0000       66.0000   283603    1.49%
   2600  1117    infeasible             67.0000       66.0000   307902    1.49%
   2700  1193    infeasible             67.0000       66.0000   326861    1.49%
   2800  1273       66.0000    80       67.0000       66.0000   347419    1.49%
   2900  1331       66.0000    85       67.0000       66.0000   374947    1.49%
   3000  1415       66.0000   127       67.0000       66.0000   389466    1.49%
Elapsed time = 309.63 sec. (tree size = 23.47 MB, solutions = 9)
   3100  1497       66.0000    74       67.0000       66.0000   409949    1.49%
   3200  1567       66.0000   136       67.0000       66.0000   430413    1.49%
   3300  1641       66.0000    98       67.0000       66.0000   451052    1.49%
   3400  1721       66.0000   112       67.0000       66.0000   467880    1.49%
   3500  1803       66.0000   126       67.0000       66.0000   489386    1.49%
   3600  1881       66.0000   123       67.0000       66.0000   513168    1.49%
   3700  1963       66.0000   172       67.0000       66.0000   537116    1.49%
   3800  2031       66.0000   154       67.0000       66.0000   561900    1.49%
   3900  2099       66.0000   134       67.0000       66.0000   590991    1.49%
   4000  2185       66.0000   136       67.0000       66.0000   605686    1.49%
Elapsed time = 547.45 sec. (tree size = 42.55 MB, solutions = 9)
   4100  2249       66.0000    72       67.0000       66.0000   633211    1.49%
   4200  2341       66.0000   103       67.0000       66.0000   646065    1.49%
   4300  2413       66.0000   134       67.0000       66.0000   668044    1.49%
   4400  2493       66.0000   185       67.0000       66.0000   686426    1.49%
   4500  2579       66.0000   141       67.0000       66.0000   705714    1.49%
   4600  2651       66.0000   139       67.0000       66.0000   726075    1.49%
   4700  2719       66.0000   123       67.0000       66.0000   753450    1.49%
   4800  2801       66.0000   194       67.0000       66.0000   770839    1.49%
   4900  2875       66.0000   105       67.0000       66.0000   797293    1.49%
   5000  2951       66.0000   107       67.0000       66.0000   816989    1.49%
Elapsed time = 824.59 sec. (tree size = 64.79 MB, solutions = 9)
   5100  3025       66.0000   138       67.0000       66.0000   843721    1.49%
   5200  3103       66.0000    61       67.0000       66.0000   865167    1.49%
   5300  3163       66.0000   149       67.0000       66.0000   906382    1.49%
   5400  3257       66.0000    89       67.0000       66.0000   922072    1.49%
   5500  3333       66.0000   124       67.0000       66.0000   950110    1.49%
   5600  3395       66.0000   185       67.0000       66.0000   988960    1.49%
   5700  3479       66.0000   126       67.0000       66.0000  1012697    1.49%
   5800  3531       66.0000   110       67.0000       66.0000  1054896    1.49%
   5900  3609       66.0000   201       67.0000       66.0000  1074781    1.49%
   6000  3663       66.0000   187       67.0000       66.0000  1122927    1.49%
Elapsed time = 1238.42 sec. (tree size = 88.50 MB, solutions = 9)
   6100  3741       66.0000   157       67.0000       66.0000  1143290    1.49%
   6200  3791       66.0000   142       67.0000       66.0000  1191822    1.49%
   6300  3871       66.0000   104       67.0000       66.0000  1214197    1.49%
   6400  3941    infeasible             67.0000       66.0000  1249353    1.49%
   6500  4015    infeasible             67.0000       66.0000  1286719    1.49%
   6600  4071       66.0000   134       67.0000       66.0000  1330551    1.49%
   6700  4115       66.0000   155       67.0000       66.0000  1376702    1.49%
   6800  4193       66.0000   185       67.0000       66.0000  1402136    1.49%
   6900  4249    infeasible             67.0000       66.0000  1444991    1.49%
   7000  4295       66.0000   164       67.0000       66.0000  1502868    1.49%
Elapsed time = 1821.44 sec. (tree size = 113.73 MB, solutions = 9)
   7100  4363       66.0000   122       67.0000       66.0000  1538019    1.49%
   7200  4421       66.0000   101       67.0000       66.0000  1583433    1.49%
   7300  4497       66.0000   132       67.0000       66.0000  1606202    1.49%
   7400  4571       66.0000   192       67.0000       66.0000  1629836    1.49%
   7500  4621       66.0000   110       67.0000       66.0000  1670684    1.49%
   7600  4663    infeasible             67.0000       66.0000  1724480    1.49%
   7700  4727       66.0000   206       67.0000       66.0000  1762555    1.49%
   7800  4781       66.0000    95       67.0000       66.0000  1827273    1.49%
   7900  4849       66.0000   190       67.0000       66.0000  1862061    1.49%
   8000  4915       66.0000   161       67.0000       66.0000  1896374    1.49%
Elapsed time = 2465.66 sec. (tree size = 141.22 MB, solutions = 9)
Nodefile size = 13.73 MB (13.01 MB after compression)
   8100  4995       66.0000   172       67.0000       66.0000  1920515    1.49%
   8200  5055       66.0000   183       67.0000       66.0000  1969043    1.49%
   8300  5139       66.0000    84       67.0000       66.0000  1991317    1.49%
   8400  5209       66.0000   159       67.0000       66.0000  2027828    1.49%
   8500  5271       66.0000   173       67.0000       66.0000  2067151    1.49%
   8600  5349       66.0000   119       67.0000       66.0000  2090701    1.49%
   8700  5419       66.0000   232       67.0000       66.0000  2123547    1.49%
   8800  5479       66.0000   165       67.0000       66.0000  2166288    1.49%
   8900  5553       66.0000    99       67.0000       66.0000  2193917    1.49%
   9000  5629       66.0000    90       67.0000       66.0000  2218270    1.49%
Elapsed time = 3005.27 sec. (tree size = 171.32 MB, solutions = 9)
Nodefile size = 44.16 MB (41.69 MB after compression)
   9100  5705    infeasible             67.0000       66.0000  2246145    1.49%
   9200  5781       66.0000    53       67.0000       66.0000  2278979    1.49%
   9300  5851       66.0000   111       67.0000       66.0000  2322958    1.49%
   9400  5929       66.0000    95       67.0000       66.0000  2346543    1.49%
   9500  6005    infeasible             67.0000       66.0000  2374247    1.49%
   9600  6077       66.0000    97       67.0000       66.0000  2408435    1.49%
   9700  6135       66.0000    73       67.0000       66.0000  2444189    1.49%
   9800  6187       66.0000    48       67.0000       66.0000  2476559    1.49%
   9900  6261       66.0000    38       67.0000       66.0000  2498145    1.49%
  10000  6325       66.0000   101       67.0000       66.0000  2543280    1.49%
Elapsed time = 3494.63 sec. (tree size = 199.50 MB, solutions = 9)
Nodefile size = 71.69 MB (67.53 MB after compression)
  10100  6395       66.0000   118       67.0000       66.0000  2582850    1.49%
  10200  6459       66.0000    60       67.0000       66.0000  2615764    1.49%
  10300  6525       66.0000   123       67.0000       66.0000  2651925    1.49%
  10400  6589       66.0000    79       67.0000       66.0000  2675834    1.49%
  10500  6657       66.0000   101       67.0000       66.0000  2709771    1.49%
  10600  6727       66.0000    89       67.0000       66.0000  2742950    1.49%
  10700  6787    infeasible             67.0000       66.0000  2783523    1.49%
  10800  6841       66.0000    30       67.0000       66.0000  2814700    1.49%
  10900  6901       66.0000   119       67.0000       66.0000  2857924    1.49%
  11000  6933    infeasible             67.0000       66.0000  2911722    1.49%
Elapsed time = 4034.52 sec. (tree size = 224.16 MB, solutions = 9)
Nodefile size = 97.20 MB (91.52 MB after compression)
  11100  6979    infeasible             67.0000       66.0000  2953466    1.49%
  11200  7023       66.0000   102       67.0000       66.0000  3001924    1.49%
  11300  7089       66.0000    39       67.0000       66.0000  3034304    1.49%
  11400  7131       66.0000   145       67.0000       66.0000  3079496    1.49%
  11500  7183       66.0000    64       67.0000       66.0000  3116404    1.49%
  11600  7227       66.0000    64       67.0000       66.0000  3175053    1.49%
  11700  7271       66.0000    93       67.0000       66.0000  3222432    1.49%
* 11776     0      integral     0       66.0000       66.0000  3260028    0.00%

Cover cuts applied:  2646
Zero-half cuts applied:  1
Gomory fractional cuts applied:  3

Solution pool: 10 solutions saved.

MIP - Integer optimal solution:  Objective = 6.6000000000e+001
Solution time = 4533.49 sec.  Iterations = 3260028  Nodes = 11777


Incumbent solution
Variable Name           Solution Value
Cmax                         66.000000
X_1_7                         1.000000
X_2_2                         1.000000
X_3_28                        1.000000
X_4_18                        1.000000
X_5_18                        1.000000
X_6_9                         1.000000
X_7_23                        1.000000
X_8_28                        1.000000
X_9_3                         1.000000
X_10_30                       1.000000
X_11_22                       1.000000
X_12_7                        1.000000
X_13_9                        1.000000
X_14_1                        1.000000
X_15_14                       1.000000
X_16_30                       1.000000
X_17_3                        1.000000
X_18_6                        1.000000
X_19_7                        1.000000
X_20_9                        1.000000
X_21_12                       1.000000
X_22_28                       1.000000
X_23_13                       1.000000
X_24_24                       1.000000
X_25_5                        1.000000
X_26_17                       1.000000
X_27_15                       1.000000
X_28_19                       1.000000
X_29_21                       1.000000
X_30_25                       1.000000
X_31_7                        1.000000
X_32_4                        1.000000
X_33_15                       1.000000
X_34_4                        1.000000
X_35_1                        1.000000
X_36_27                       1.000000
X_37_20                       1.000000
X_38_8                        1.000000
X_39_28                       1.000000
X_40_23                       1.000000
X_41_12                       1.000000
X_42_26                       1.000000
X_43_26                       1.000000
X_44_17                       1.000000
X_45_28                       1.000000
X_46_15                       1.000000
X_47_27                       1.000000
X_48_19                       1.000000
X_49_29                       1.000000
X_50_1                        1.000000
X_51_17                       1.000000
X_52_27                       1.000000
X_53_12                       1.000000
X_54_20                       1.000000
X_55_21                       1.000000
X_56_25                       1.000000
X_57_28                       1.000000
X_58_18                       1.000000
X_59_21                       1.000000
X_60_3                        1.000000
X_61_7                        1.000000
X_62_28                       1.000000
X_63_14                       1.000000
X_64_27                       1.000000
X_65_12                       1.000000
X_66_1                        1.000000
X_67_11                       1.000000
X_68_5                        1.000000
X_69_7                        1.000000
X_70_21                       1.000000
X_71_30                       1.000000
X_72_18                       1.000000
X_73_30                       1.000000
X_74_30                       1.000000
X_75_20                       1.000000
X_76_29                       1.000000
X_77_7                        1.000000
X_78_2                        1.000000
X_79_21                       1.000000
X_80_20                       1.000000
X_81_26                       1.000000
X_82_21                       1.000000
X_83_6                        1.000000
X_84_11                       1.000000
X_85_3                        1.000000
X_86_13                       1.000000
X_87_23                       1.000000
X_88_24                       1.000000
X_89_30                       1.000000
X_90_28                       1.000000
X_91_2                        1.000000
X_92_5                        1.000000
X_93_25                       1.000000
X_94_26                       1.000000
X_95_15                       1.000000
X_96_13                       1.000000
X_97_5                        1.000000
X_98_13                       1.000000
X_99_8                        1.000000
X_100_6                       1.000000
X_101_15                      1.000000
X_102_15                      1.000000
X_103_17                      1.000000
X_104_11                      1.000000
X_105_28                      1.000000
X_106_27                      1.000000
X_107_10                      1.000000
X_108_23                      1.000000
X_109_5                       1.000000
X_110_1                       1.000000
X_111_7                       1.000000
X_112_14                      1.000000
X_113_29                      1.000000
X_114_27                      1.000000
X_115_19                      1.000000
X_116_16                      1.000000
X_117_27                      1.000000
X_118_8                       1.000000
X_119_20                      1.000000
X_120_13                      1.000000
X_121_22                      1.000000
X_122_15                      1.000000
X_123_25                      1.000000
X_124_19                      1.000000
X_125_24                      1.000000
X_126_21                      1.000000
X_127_23                      1.000000
X_128_9                       1.000000
X_129_2                       1.000000
X_130_6                       1.000000
X_131_12                      1.000000
X_132_13                      1.000000
X_133_5                       1.000000
X_134_19                      1.000000
X_135_24                      1.000000
X_136_25                      1.000000
X_137_25                      1.000000
X_138_12                      1.000000
X_139_8                       1.000000
X_140_3                       1.000000
X_141_7                       1.000000
X_142_13                      1.000000
X_143_2                       1.000000
X_144_6                       1.000000
X_145_21                      1.000000
X_146_16                      1.000000
X_147_21                      1.000000
X_148_20                      1.000000
X_149_11                      1.000000
X_150_18                      1.000000
X_151_14                      1.000000
X_152_22                      1.000000
X_153_7                       1.000000
X_154_16                      1.000000
X_155_28                      1.000000
X_156_2                       1.000000
X_157_24                      1.000000
X_158_28                      1.000000
X_159_28                      1.000000
X_160_23                      1.000000
X_161_3                       1.000000
X_162_16                      1.000000
X_163_12                      1.000000
X_164_25                      1.000000
X_165_26                      1.000000
X_166_30                      1.000000
X_167_2                       1.000000
X_168_3                       1.000000
X_169_29                      1.000000
X_170_6                       1.000000
X_171_2                       1.000000
X_172_22                      1.000000
X_173_1                       1.000000
X_174_26                      1.000000
X_175_28                      1.000000
X_176_12                      1.000000
X_177_14                      1.000000
X_178_4                       1.000000
X_179_27                      1.000000
X_180_1                       1.000000
X_181_19                      1.000000
X_182_20                      1.000000
X_183_29                      1.000000
X_184_5                       1.000000
X_185_9                       1.000000
X_186_11                      1.000000
X_187_29                      1.000000
X_188_10                      1.000000
X_189_27                      1.000000
X_190_11                      1.000000
X_191_2                       1.000000
X_192_22                      1.000000
X_193_17                      1.000000
X_194_4                       1.000000
X_195_13                      1.000000
X_196_28                      1.000000
X_197_9                       1.000000
X_198_15                      1.000000
X_199_30                      1.000000
X_200_5                       1.000000
X_201_3                       1.000000
X_202_12                      1.000000
X_203_28                      1.000000
X_204_8                       1.000000
X_205_2                       1.000000
X_206_19                      1.000000
X_207_13                      1.000000
X_208_19                      1.000000
X_209_17                      1.000000
X_210_13                      1.000000
X_211_26                      1.000000
X_212_3                       1.000000
X_213_14                      1.000000
X_214_10                      1.000000
X_215_13                      1.000000
X_216_23                      1.000000
X_217_13                      1.000000
X_218_8                       1.000000
X_219_2                       1.000000
X_220_9                       1.000000
X_221_20                      1.000000
X_222_15                      1.000000
X_223_24                      1.000000
X_224_3                       1.000000
X_225_27                      1.000000
X_226_30                      1.000000
X_227_17                      1.000000
X_228_5                       1.000000
X_229_29                      1.000000
X_230_30                      1.000000
X_231_26                      1.000000
X_232_8                       1.000000
X_233_29                      1.000000
X_234_29                      1.000000
X_235_24                      1.000000
X_236_22                      1.000000
X_237_8                       1.000000
X_238_18                      1.000000
X_239_26                      1.000000
X_240_21                      1.000000
X_241_5                       1.000000
X_242_15                      1.000000
X_243_6                       1.000000
X_244_28                      1.000000
X_245_30                      1.000000
X_246_2                       1.000000
X_247_5                       1.000000
X_248_11                      1.000000
X_249_27                      1.000000
X_250_1                       1.000000
X_251_11                      1.000000
X_252_23                      1.000000
X_253_25                      1.000000
X_254_27                      1.000000
X_255_18                      1.000000
X_256_6                       1.000000
X_257_22                      1.000000
X_258_14                      1.000000
X_259_1                       1.000000
X_260_2                       1.000000
X_261_24                      1.000000
X_262_22                      1.000000
X_263_26                      1.000000
X_264_26                      1.000000
X_265_22                      1.000000
X_266_25                      1.000000
X_267_30                      1.000000
X_268_7                       1.000000
X_269_25                      1.000000
X_270_17                      1.000000
X_271_26                      1.000000
X_272_12                      1.000000
X_273_5                       1.000000
X_274_3                       1.000000
X_275_10                      1.000000
X_276_25                      1.000000
X_277_29                      1.000000
X_278_28                      1.000000
X_279_15                      1.000000
X_280_5                       1.000000
X_281_15                      1.000000
X_282_7                       1.000000
X_283_3                       1.000000
X_284_8                       1.000000
X_285_26                      1.000000
X_286_3                       1.000000
X_287_4                       1.000000
X_288_19                      1.000000
X_289_14                      1.000000
X_290_15                      1.000000
X_291_23                      1.000000
X_292_15                      1.000000
X_293_8                       1.000000
X_294_22                      1.000000
X_295_9                       1.000000
X_296_30                      1.000000
X_297_29                      1.000000
X_298_24                      1.000000
X_299_3                       1.000000
X_300_11                      1.000000
X_301_13                      1.000000
X_302_1                       1.000000
X_303_17                      1.000000
X_304_4                       1.000000
X_305_6                       1.000000
X_306_28                      1.000000
X_307_16                      1.000000
X_308_23                      1.000000
X_309_5                       1.000000
X_310_9                       1.000000
X_311_13                      1.000000
X_312_10                      1.000000
X_313_20                      1.000000
X_314_23                      1.000000
X_315_26                      1.000000
X_316_16                      1.000000
X_317_6                       1.000000
X_318_10                      1.000000
X_319_25                      1.000000
X_320_19                      1.000000
X_321_27                      1.000000
X_322_8                       1.000000
X_323_20                      1.000000
X_324_7                       1.000000
X_325_21                      1.000000
X_326_10                      1.000000
X_327_27                      1.000000
X_328_17                      1.000000
X_329_10                      1.000000
X_330_14                      1.000000
X_331_9                       1.000000
X_332_1                       1.000000
X_333_18                      1.000000
X_334_2                       1.000000
X_335_13                      1.000000
X_336_15                      1.000000
X_337_16                      1.000000
X_338_12                      1.000000
X_339_29                      1.000000
X_340_20                      1.000000
X_341_25                      1.000000
X_342_14                      1.000000
X_343_12                      1.000000
X_344_7                       1.000000
X_345_25                      1.000000
X_346_14                      1.000000
X_347_11                      1.000000
X_348_26                      1.000000
X_349_20                      1.000000
X_350_17                      1.000000
X_351_16                      1.000000
X_352_30                      1.000000
X_353_8                       1.000000
X_354_21                      1.000000
X_355_27                      1.000000
X_356_2                       1.000000
X_357_24                      1.000000
X_358_20                      1.000000
X_359_29                      1.000000
X_360_23                      1.000000
X_361_1                       1.000000
X_362_15                      1.000000
X_363_13                      1.000000
X_364_19                      1.000000
X_365_3                       1.000000
X_366_21                      1.000000
X_367_28                      1.000000
X_368_30                      1.000000
X_369_23                      1.000000
X_370_19                      1.000000
X_371_26                      1.000000
X_372_22                      1.000000
X_373_4                       1.000000
X_374_5                       1.000000
X_375_25                      1.000000
X_376_28                      1.000000
X_377_8                       1.000000
X_378_6                       1.000000
X_379_7                       1.000000
X_380_22                      1.000000
X_381_2                       1.000000
X_382_2                       1.000000
X_383_10                      1.000000
X_384_14                      1.000000
X_385_7                       1.000000
X_386_16                      1.000000
X_387_21                      1.000000
X_388_15                      1.000000
X_389_24                      1.000000
X_390_8                       1.000000
X_391_4                       1.000000
X_392_17                      1.000000
X_393_14                      1.000000
X_394_7                       1.000000
X_395_4                       1.000000
X_396_23                      1.000000
X_397_9                       1.000000
X_398_10                      1.000000
X_399_13                      1.000000
X_400_12                      1.000000
X_401_14                      1.000000
X_402_14                      1.000000
X_403_21                      1.000000
X_404_22                      1.000000
X_405_14                      1.000000
X_406_17                      1.000000
X_407_9                       1.000000
X_408_24                      1.000000
X_409_24                      1.000000
X_410_15                      1.000000
X_411_24                      1.000000
X_412_7                       1.000000
X_413_10                      1.000000
X_414_3                       1.000000
X_415_20                      1.000000
X_416_16                      1.000000
X_417_30                      1.000000
X_418_18                      1.000000
X_419_12                      1.000000
X_420_5                       1.000000
X_421_1                       1.000000
X_422_1                       1.000000
X_423_5                       1.000000
X_424_28                      1.000000
X_425_15                      1.000000
X_426_21                      1.000000
X_427_24                      1.000000
X_428_11                      1.000000
X_429_29                      1.000000
X_430_27                      1.000000
X_431_9                       1.000000
X_432_20                      1.000000
X_433_15                      1.000000
X_434_2                       1.000000
X_435_23                      1.000000
X_436_28                      1.000000
X_437_15                      1.000000
X_438_11                      1.000000
X_439_8                       1.000000
X_440_29                      1.000000
X_441_16                      1.000000
X_442_26                      1.000000
X_443_10                      1.000000
X_444_16                      1.000000
X_445_10                      1.000000
X_446_9                       1.000000
X_447_29                      1.000000
X_448_18                      1.000000
X_449_27                      1.000000
X_450_17                      1.000000
X_451_9                       1.000000
X_452_6                       1.000000
X_453_17                      1.000000
X_454_9                       1.000000
X_455_17                      1.000000
X_456_17                      1.000000
X_457_7                       1.000000
X_458_25                      1.000000
X_459_25                      1.000000
X_460_18                      1.000000
X_461_24                      1.000000
X_462_29                      1.000000
X_463_27                      1.000000
X_464_25                      1.000000
X_465_28                      1.000000
X_466_11                      1.000000
X_467_12                      1.000000
X_468_28                      1.000000
X_469_6                       1.000000
X_470_22                      1.000000
X_471_22                      1.000000
X_472_16                      1.000000
X_473_20                      1.000000
X_474_26                      1.000000
X_475_29                      1.000000
X_476_3                       1.000000
X_477_8                       1.000000
X_478_2                       1.000000
X_479_14                      1.000000
X_480_4                       1.000000
X_481_12                      1.000000
X_482_3                       1.000000
X_483_12                      1.000000
X_484_24                      1.000000
X_485_12                      1.000000
X_486_1                       1.000000
X_487_27                      1.000000
X_488_11                      1.000000
X_489_12                      1.000000
X_490_14                      1.000000
X_491_30                      1.000000
X_492_21                      1.000000
X_493_17                      1.000000
X_494_9                       1.000000
X_495_19                      1.000000
X_496_18                      1.000000
X_497_7                       1.000000
X_498_7                       1.000000
X_499_22                      1.000000
X_500_3                       1.000000
All other variables in the range 1-15001 are 0.
